p cnf 961 2467
51 -695 -696 0
-51 695 0
-51 696 0
52 -51 -697 0
-52 51 0
-52 697 0
53 -5 -4 0
-53 5 0
-53 4 0
54 -53 -698 0
-54 53 0
-54 698 0
55 -699 -700 0
-55 699 0
-55 700 0
56 -701 -702 0
-56 701 0
-56 702 0
57 -56 -703 0
-57 56 0
-57 703 0
58 -704 -55 0
-58 704 0
-58 55 0
59 -705 -697 0
-59 705 0
-59 697 0
60 -59 -706 0
-60 59 0
-60 706 0
61 -707 -58 0
-61 707 0
-61 58 0
62 -12 -702 0
-62 12 0
-62 702 0
63 -62 -13 0
-63 62 0
-63 13 0
64 -708 -61 0
-64 708 0
-64 61 0
65 -709 -7 0
-65 709 0
-65 7 0
66 -65 -15 0
-66 65 0
-66 15 0
67 -710 -64 0
-67 710 0
-67 64 0
68 -711 -2 0
-68 711 0
-68 2 0
69 -68 -6 0
-69 68 0
-69 6 0
70 -712 -67 0
-70 712 0
-70 67 0
71 -18 -17 0
-71 18 0
-71 17 0
72 -71 -19 0
-72 71 0
-72 19 0
73 -713 -70 0
-73 713 0
-73 70 0
74 -20 -17 0
-74 20 0
-74 17 0
75 -74 -12 0
-75 74 0
-75 12 0
76 -714 -73 0
-76 714 0
-76 73 0
77 -715 -716 0
-77 715 0
-77 716 0
78 -77 -697 0
-78 77 0
-78 697 0
79 -717 -76 0
-79 717 0
-79 76 0
80 -23 -22 0
-80 23 0
-80 22 0
81 -80 -6 0
-81 80 0
-81 6 0
82 -718 -79 0
-82 718 0
-82 79 0
83 -719 -720 0
-83 719 0
-83 720 0
84 -83 -9 0
-84 83 0
-84 9 0
85 -721 -82 0
-85 721 0
-85 82 0
86 -702 -1 0
-86 702 0
-86 1 0
87 -86 -26 0
-87 86 0
-87 26 0
88 -722 -85 0
-88 722 0
-88 85 0
89 -27 -16 0
-89 27 0
-89 16 0
90 -89 -723 0
-90 89 0
-90 723 0
91 -724 -88 0
-91 724 0
-91 88 0
92 -28 -2 0
-92 28 0
-92 2 0
93 -92 -725 0
-93 92 0
-93 725 0
94 -726 -91 0
-94 726 0
-94 91 0
95 -727 -9 0
-95 727 0
-95 9 0
96 -95 -728 0
-96 95 0
-96 728 0
97 -729 -94 0
-97 729 0
-97 94 0
98 -730 -1 0
-98 730 0
-98 1 0
99 -98 -731 0
-99 98 0
-99 731 0
100 -732 -97 0
-100 732 0
-100 97 0
101 -33 -23 0
-101 33 0
-101 23 0
102 -101 -733 0
-102 101 0
-102 733 0
103 -734 -100 0
-103 734 0
-103 100 0
104 -35 -30 0
-104 35 0
-104 30 0
105 -104 -723 0
-105 104 0
-105 723 0
106 -735 -103 0
-106 735 0
-106 103 0
107 -736 -695 0
-107 736 0
-107 695 0
108 -107 -37 0
-108 107 0
-108 37 0
109 -737 -106 0
-109 737 0
-109 106 0
110 -18 -1 0
-110 18 0
-110 1 0
111 -110 -705 0
-111 110 0
-111 705 0
112 -738 -109 0
-112 738 0
-112 109 0
113 -36 -4 0
-113 36 0
-113 4 0
114 -113 -37 0
-114 113 0
-114 37 0
115 -739 -112 0
-115 739 0
-115 112 0
116 -35 -28 0
-116 35 0
-116 28 0
117 -116 -11 0
-117 116 0
-117 11 0
118 -740 -115 0
-118 740 0
-118 115 0
119 -741 -24 0
-119 741 0
-119 24 0
120 -119 -742 0
-120 119 0
-120 742 0
121 -743 -118 0
-121 743 0
-121 118 0
122 -30 -21 0
-122 30 0
-122 21 0
123 -122 -29 0
-123 122 0
-123 29 0
124 -744 -121 0
-124 744 0
-124 121 0
125 -12 -9 0
-125 12 0
-125 9 0
126 -125 -731 0
-126 125 0
-126 731 0
127 -745 -124 0
-127 745 0
-127 124 0
128 -736 -715 0
-128 736 0
-128 715 0
129 -128 -733 0
-129 128 0
-129 733 0
130 -746 -127 0
-130 746 0
-130 127 0
131 -26 -22 0
-131 26 0
-131 22 0
132 -131 -34 0
-132 131 0
-132 34 0
133 -747 -130 0
-133 747 0
-133 130 0
134 -736 -730 0
-134 736 0
-134 730 0
135 -134 -742 0
-135 134 0
-135 742 0
136 -748 -133 0
-136 748 0
-136 133 0
137 -719 -706 0
-137 719 0
-137 706 0
138 -137 -731 0
-138 137 0
-138 731 0
139 -749 -136 0
-139 749 0
-139 136 0
140 -750 -696 0
-140 750 0
-140 696 0
141 -140 -29 0
-141 140 0
-141 29 0
142 -751 -139 0
-142 751 0
-142 139 0
143 -720 -723 0
-143 720 0
-143 723 0
144 -143 -3 0
-144 143 0
-144 3 0
145 -752 -142 0
-145 752 0
-145 142 0
146 -736 -719 0
-146 736 0
-146 719 0
147 -146 -41 0
-147 146 0
-147 41 0
148 -753 -145 0
-148 753 0
-148 145 0
149 -36 -709 0
-149 36 0
-149 709 0
150 -149 -11 0
-150 149 0
-150 11 0
151 -754 -148 0
-151 754 0
-151 148 0
152 -110 -755 0
-152 110 0
-152 755 0
153 -756 -151 0
-153 756 0
-153 151 0
154 -757 -755 0
-154 757 0
-154 755 0
155 -154 -15 0
-155 154 0
-155 15 0
156 -758 -153 0
-156 758 0
-156 153 0
157 -759 -755 0
-157 759 0
-157 755 0
158 -157 -760 0
-158 157 0
-158 760 0
159 -761 -156 0
-159 761 0
-159 156 0
160 -40 -21 0
-160 40 0
-160 21 0
161 -160 -762 0
-161 160 0
-161 762 0
162 -763 -159 0
-162 763 0
-162 159 0
163 -40 -16 0
-163 40 0
-163 16 0
164 -163 -764 0
-164 163 0
-164 764 0
165 -765 -162 0
-165 765 0
-165 162 0
166 -42 -38 0
-166 42 0
-166 38 0
167 -166 -766 0
-167 166 0
-167 766 0
168 -767 -165 0
-168 767 0
-168 165 0
169 -43 -768 0
-169 43 0
-169 768 0
170 -169 -701 0
-170 169 0
-170 701 0
171 -769 -168 0
-171 769 0
-171 168 0
172 -38 -8 0
-172 38 0
-172 8 0
173 -172 -742 0
-173 172 0
-173 742 0
174 -770 -171 0
-174 770 0
-174 171 0
175 -43 -21 0
-175 43 0
-175 21 0
176 -175 -730 0
-176 175 0
-176 730 0
177 -771 -174 0
-177 771 0
-177 174 0
178 -723 -772 0
-178 723 0
-178 772 0
179 -178 -26 0
-179 178 0
-179 26 0
180 -773 -177 0
-180 773 0
-180 177 0
181 -750 -711 0
-181 750 0
-181 711 0
182 -181 -698 0
-182 181 0
-182 698 0
183 -774 -180 0
-183 774 0
-183 180 0
184 -17 -755 0
-184 17 0
-184 755 0
185 -184 -3 0
-185 184 0
-185 3 0
186 -775 -183 0
-186 775 0
-186 183 0
187 -28 -766 0
-187 28 0
-187 766 0
188 -187 -731 0
-188 187 0
-188 731 0
189 -776 -186 0
-189 776 0
-189 186 0
190 -22 -18 0
-190 22 0
-190 18 0
191 -190 -13 0
-191 190 0
-191 13 0
192 -777 -189 0
-192 777 0
-192 189 0
193 -42 -8 0
-193 42 0
-193 8 0
194 -193 -778 0
-194 193 0
-194 778 0
195 -779 -192 0
-195 779 0
-195 192 0
196 -780 -720 0
-196 780 0
-196 720 0
197 -196 -11 0
-197 196 0
-197 11 0
198 -781 -195 0
-198 781 0
-198 195 0
199 -759 -782 0
-199 759 0
-199 782 0
200 -199 -778 0
-200 199 0
-200 778 0
201 -783 -198 0
-201 783 0
-201 198 0
202 -42 -750 0
-202 42 0
-202 750 0
203 -202 -731 0
-203 202 0
-203 731 0
204 -784 -201 0
-204 784 0
-204 201 0
205 -45 -20 0
-205 45 0
-205 20 0
206 -205 -785 0
-206 205 0
-206 785 0
207 -786 -204 0
-207 786 0
-207 204 0
208 -46 -43 0
-208 46 0
-208 43 0
209 -208 -37 0
-209 208 0
-209 37 0
210 -787 -207 0
-210 787 0
-210 207 0
211 -40 -709 0
-211 40 0
-211 709 0
212 -211 -766 0
-212 211 0
-212 766 0
213 -788 -210 0
-213 788 0
-213 210 0
214 -18 -711 0
-214 18 0
-214 711 0
215 -214 -44 0
-215 214 0
-215 44 0
216 -789 -213 0
-216 789 0
-216 213 0
217 -35 -697 0
-217 35 0
-217 697 0
218 -217 -766 0
-218 217 0
-218 766 0
219 -790 -216 0
-219 790 0
-219 216 0
220 -28 -7 0
-220 28 0
-220 7 0
221 -220 -706 0
-221 220 0
-221 706 0
222 -791 -219 0
-222 791 0
-222 219 0
223 -45 -750 0
-223 45 0
-223 750 0
224 -223 -4 0
-224 223 0
-224 4 0
225 -792 -222 0
-225 792 0
-225 222 0
226 -11 -755 0
-226 11 0
-226 755 0
227 -226 -728 0
-227 226 0
-227 728 0
228 -793 -225 0
-228 793 0
-228 225 0
229 -47 -3 0
-229 47 0
-229 3 0
230 -229 -794 0
-230 229 0
-230 794 0
231 -795 -228 0
-231 795 0
-231 228 0
232 -796 -782 0
-232 796 0
-232 782 0
233 -232 -25 0
-233 232 0
-233 25 0
234 -797 -231 0
-234 797 0
-234 231 0
235 -798 -695 0
-235 798 0
-235 695 0
236 -235 -39 0
-236 235 0
-236 39 0
237 -799 -234 0
-237 799 0
-237 234 0
238 -47 -26 0
-238 47 0
-238 26 0
239 -238 -731 0
-239 238 0
-239 731 0
240 -800 -237 0
-240 800 0
-240 237 0
241 -18 -7 0
-241 18 0
-241 7 0
242 -241 -37 0
-242 241 0
-242 37 0
243 -801 -240 0
-243 801 0
-243 240 0
244 -709 -2 0
-244 709 0
-244 2 0
245 -244 -728 0
-245 244 0
-245 728 0
246 -802 -243 0
-246 802 0
-246 243 0
247 -803 -705 0
-247 803 0
-247 705 0
248 -247 -725 0
-248 247 0
-248 725 0
249 -804 -246 0
-249 804 0
-249 246 0
250 -46 -30 0
-250 46 0
-250 30 0
251 -250 -15 0
-251 250 0
-251 15 0
252 -805 -249 0
-252 805 0
-252 249 0
253 -22 -806 0
-253 22 0
-253 806 0
254 -253 -26 0
-254 253 0
-254 26 0
255 -807 -252 0
-255 807 0
-255 252 0
256 -741 -762 0
-256 741 0
-256 762 0
257 -256 -9 0
-257 256 0
-257 9 0
258 -808 -255 0
-258 808 0
-258 255 0
259 -38 -23 0
-259 38 0
-259 23 0
260 -259 -15 0
-260 259 0
-260 15 0
261 -809 -258 0
-261 809 0
-261 258 0
262 -730 -10 0
-262 730 0
-262 10 0
263 -262 -794 0
-263 262 0
-263 794 0
264 -810 -261 0
-264 810 0
-264 261 0
265 -811 -716 0
-265 811 0
-265 716 0
266 -265 -37 0
-266 265 0
-266 37 0
267 -812 -264 0
-267 812 0
-267 264 0
268 -46 -14 0
-268 46 0
-268 14 0
269 -268 -32 0
-269 268 0
-269 32 0
270 -813 -267 0
-270 813 0
-270 267 0
271 -28 -701 0
-271 28 0
-271 701 0
272 -271 -44 0
-272 271 0
-272 44 0
273 -814 -270 0
-273 814 0
-273 270 0
274 -46 -26 0
-274 46 0
-274 26 0
275 -274 -766 0
-275 274 0
-275 766 0
276 -815 -273 0
-276 815 0
-276 273 0
277 -750 -19 0
-277 750 0
-277 19 0
278 -277 -733 0
-278 277 0
-278 733 0
279 -816 -276 0
-279 816 0
-279 276 0
280 -36 -766 0
-280 36 0
-280 766 0
281 -280 -731 0
-281 280 0
-281 731 0
282 -817 -279 0
-282 817 0
-282 279 0
283 -28 -1 0
-283 28 0
-283 1 0
284 -283 -818 0
-284 283 0
-284 818 0
285 -819 -282 0
-285 819 0
-285 282 0
286 -33 -10 0
-286 33 0
-286 10 0
287 -286 -26 0
-287 286 0
-287 26 0
288 -820 -285 0
-288 820 0
-288 285 0
289 -750 -28 0
-289 750 0
-289 28 0
290 -289 -766 0
-290 289 0
-290 766 0
291 -821 -288 0
-291 821 0
-291 288 0
292 -822 -759 0
-292 822 0
-292 759 0
293 -292 -36 0
-293 292 0
-293 36 0
294 -823 -291 0
-294 823 0
-294 291 0
295 -31 -702 0
-295 31 0
-295 702 0
296 -295 -794 0
-296 295 0
-296 794 0
297 -824 -294 0
-297 824 0
-297 294 0
298 -30 -702 0
-298 30 0
-298 702 0
299 -298 -794 0
-299 298 0
-299 794 0
300 -825 -297 0
-300 825 0
-300 297 0
301 -46 -38 0
-301 46 0
-301 38 0
302 -301 -778 0
-302 301 0
-302 778 0
303 -826 -300 0
-303 826 0
-303 300 0
304 -750 -701 0
-304 750 0
-304 701 0
305 -304 -703 0
-305 304 0
-305 703 0
306 -827 -303 0
-306 827 0
-306 303 0
307 -32 -31 0
-307 32 0
-307 31 0
308 -307 -725 0
-308 307 0
-308 725 0
309 -828 -306 0
-309 828 0
-309 306 0
310 -24 -695 0
-310 24 0
-310 695 0
311 -310 -41 0
-311 310 0
-311 41 0
312 -829 -309 0
-312 829 0
-312 309 0
313 -11 -7 0
-313 11 0
-313 7 0
314 -313 -41 0
-314 313 0
-314 41 0
315 -830 -312 0
-315 830 0
-315 312 0
316 -9 -7 0
-316 9 0
-316 7 0
317 -316 -13 0
-317 316 0
-317 13 0
318 -831 -315 0
-318 831 0
-318 315 0
319 -45 -42 0
-319 45 0
-319 42 0
320 -319 -36 0
-320 319 0
-320 36 0
321 -832 -318 0
-321 832 0
-321 318 0
322 -49 -755 0
-322 49 0
-322 755 0
323 -322 -697 0
-323 322 0
-323 697 0
324 -833 -321 0
-324 833 0
-324 321 0
325 -21 -695 0
-325 21 0
-325 695 0
326 -325 -778 0
-326 325 0
-326 778 0
327 -834 -324 0
-327 834 0
-327 324 0
328 -757 -715 0
-328 757 0
-328 715 0
329 -328 -44 0
-329 328 0
-329 44 0
330 -835 -327 0
-330 835 0
-330 327 0
331 -750 -755 0
-331 750 0
-331 755 0
332 -331 -733 0
-332 331 0
-332 733 0
333 -836 -330 0
-333 836 0
-333 330 0
334 -796 -35 0
-334 796 0
-334 35 0
335 -334 -18 0
-335 334 0
-335 18 0
336 -837 -333 0
-336 837 0
-336 333 0
337 -28 -27 0
-337 28 0
-337 27 0
338 -337 -736 0
-338 337 0
-338 736 0
339 -838 -336 0
-339 838 0
-339 336 0
340 -764 -716 0
-340 764 0
-340 716 0
341 -340 -3 0
-341 340 0
-341 3 0
342 -839 -339 0
-342 839 0
-342 339 0
343 -822 -695 0
-343 822 0
-343 695 0
344 -343 -778 0
-344 343 0
-344 778 0
345 -840 -342 0
-345 840 0
-345 342 0
346 -47 -14 0
-346 47 0
-346 14 0
347 -346 -3 0
-347 346 0
-347 3 0
348 -841 -345 0
-348 841 0
-348 345 0
349 -796 -803 0
-349 796 0
-349 803 0
350 -349 -764 0
-350 349 0
-350 764 0
351 -842 -348 0
-351 842 0
-351 348 0
352 -803 -22 0
-352 803 0
-352 22 0
353 -352 -705 0
-353 352 0
-353 705 0
354 -843 -351 0
-354 843 0
-354 351 0
355 -43 -764 0
-355 43 0
-355 764 0
356 -355 -12 0
-356 355 0
-356 12 0
357 -844 -354 0
-357 844 0
-357 354 0
358 -49 -28 0
-358 49 0
-358 28 0
359 -358 -4 0
-359 358 0
-359 4 0
360 -845 -357 0
-360 845 0
-360 357 0
361 -46 -764 0
-361 46 0
-361 764 0
362 -361 -733 0
-362 361 0
-362 733 0
363 -846 -360 0
-363 846 0
-363 360 0
364 -41 -11 0
-364 41 0
-364 11 0
365 -364 -5 0
-365 364 0
-365 5 0
366 -847 -363 0
-366 847 0
-366 363 0
367 -48 -757 0
-367 48 0
-367 757 0
368 -367 -38 0
-368 367 0
-368 38 0
369 -848 -366 0
-369 848 0
-369 366 0
370 -849 -702 0
-370 849 0
-370 702 0
371 -370 -32 0
-371 370 0
-371 32 0
372 -850 -369 0
-372 850 0
-372 369 0
373 -822 -33 0
-373 822 0
-373 33 0
374 -373 -706 0
-374 373 0
-374 706 0
375 -851 -372 0
-375 851 0
-375 372 0
376 -50 -2 0
-376 50 0
-376 2 0
377 -376 -703 0
-377 376 0
-377 703 0
378 -852 -375 0
-378 852 0
-378 375 0
379 -44 -702 0
-379 44 0
-379 702 0
380 -379 -12 0
-380 379 0
-380 12 0
381 -853 -378 0
-381 853 0
-381 378 0
382 -25 -3 0
-382 25 0
-382 3 0
383 -382 -706 0
-383 382 0
-383 706 0
384 -854 -381 0
-384 854 0
-384 381 0
385 -757 -806 0
-385 757 0
-385 806 0
386 -385 -794 0
-386 385 0
-386 794 0
387 -855 -384 0
-387 855 0
-387 384 0
388 -25 -4 0
-388 25 0
-388 4 0
389 -388 -731 0
-389 388 0
-389 731 0
390 -856 -387 0
-390 856 0
-390 387 0
391 -40 -28 0
-391 40 0
-391 28 0
392 -391 -38 0
-392 391 0
-392 38 0
393 -857 -390 0
-393 857 0
-393 390 0
394 -818 -716 0
-394 818 0
-394 716 0
395 -394 -764 0
-395 394 0
-395 764 0
396 -858 -393 0
-396 858 0
-396 393 0
397 -719 -711 0
-397 719 0
-397 711 0
398 -397 -32 0
-398 397 0
-398 32 0
399 -859 -396 0
-399 859 0
-399 396 0
400 -757 -23 0
-400 757 0
-400 23 0
401 -400 -26 0
-401 400 0
-401 26 0
402 -860 -399 0
-402 860 0
-402 399 0
403 -37 -4 0
-403 37 0
-403 4 0
404 -403 -13 0
-404 403 0
-404 13 0
405 -861 -402 0
-405 861 0
-405 402 0
406 -796 -1 0
-406 796 0
-406 1 0
407 -406 -862 0
-407 406 0
-407 862 0
408 -863 -405 0
-408 863 0
-408 405 0
409 -27 -772 0
-409 27 0
-409 772 0
410 -409 -30 0
-410 409 0
-410 30 0
411 -864 -408 0
-411 864 0
-411 408 0
412 -716 -14 0
-412 716 0
-412 14 0
413 -412 -764 0
-413 412 0
-413 764 0
414 -865 -411 0
-414 865 0
-414 411 0
415 -728 -715 0
-415 728 0
-415 715 0
416 -415 -6 0
-416 415 0
-416 6 0
417 -866 -414 0
-417 866 0
-417 414 0
418 -33 -709 0
-418 33 0
-418 709 0
419 -418 -21 0
-419 418 0
-419 21 0
420 -867 -417 0
-420 867 0
-420 417 0
421 -711 -15 0
-421 711 0
-421 15 0
422 -421 -32 0
-422 421 0
-422 32 0
423 -868 -420 0
-423 868 0
-423 420 0
424 -803 -11 0
-424 803 0
-424 11 0
425 -424 -32 0
-425 424 0
-425 32 0
426 -869 -423 0
-426 869 0
-426 423 0
427 -28 -715 0
-427 28 0
-427 715 0
428 -427 -736 0
-428 427 0
-428 736 0
429 -870 -426 0
-429 870 0
-429 426 0
430 -720 -701 0
-430 720 0
-430 701 0
431 -430 -26 0
-431 430 0
-431 26 0
432 -871 -429 0
-432 871 0
-432 429 0
433 -806 -3 0
-433 806 0
-433 3 0
434 -433 -15 0
-434 433 0
-434 15 0
435 -872 -432 0
-435 872 0
-435 432 0
436 -778 -38 0
-436 778 0
-436 38 0
437 -436 -760 0
-437 436 0
-437 760 0
438 -873 -435 0
-438 873 0
-438 435 0
439 -89 -9 0
-439 89 0
-439 9 0
440 -874 -438 0
-440 874 0
-440 438 0
441 -42 -1 0
-441 42 0
-441 1 0
442 -441 -764 0
-442 441 0
-442 764 0
443 -875 -440 0
-443 875 0
-443 440 0
444 -17 -695 0
-444 17 0
-444 695 0
445 -444 -715 0
-445 444 0
-445 715 0
446 -876 -443 0
-446 876 0
-446 443 0
447 -35 -23 0
-447 35 0
-447 23 0
448 -447 -697 0
-448 447 0
-448 697 0
449 -877 -446 0
-449 877 0
-449 446 0
450 -17 -703 0
-450 17 0
-450 703 0
451 -450 -794 0
-451 450 0
-451 794 0
452 -878 -449 0
-452 878 0
-452 449 0
453 -741 -803 0
-453 741 0
-453 803 0
454 -453 -794 0
-454 453 0
-454 794 0
455 -879 -452 0
-455 879 0
-455 452 0
456 -796 -18 0
-456 796 0
-456 18 0
457 -456 -34 0
-457 456 0
-457 34 0
458 -880 -455 0
-458 880 0
-458 455 0
459 -25 -23 0
-459 25 0
-459 23 0
460 -459 -21 0
-460 459 0
-460 21 0
461 -881 -458 0
-461 881 0
-461 458 0
462 -35 -695 0
-462 35 0
-462 695 0
463 -462 -17 0
-463 462 0
-463 17 0
464 -882 -461 0
-464 882 0
-464 461 0
465 -46 -3 0
-465 46 0
-465 3 0
466 -465 -725 0
-466 465 0
-466 725 0
467 -883 -464 0
-467 883 0
-467 464 0
468 -803 -782 0
-468 803 0
-468 782 0
469 -468 -697 0
-469 468 0
-469 697 0
470 -884 -467 0
-470 884 0
-470 467 0
471 -772 -17 0
-471 772 0
-471 17 0
472 -471 -41 0
-472 471 0
-472 41 0
473 -885 -470 0
-473 885 0
-473 470 0
474 -803 -27 0
-474 803 0
-474 27 0
475 -474 -25 0
-475 474 0
-475 25 0
476 -886 -473 0
-476 886 0
-476 473 0
477 -20 -16 0
-477 20 0
-477 16 0
478 -477 -13 0
-478 477 0
-478 13 0
479 -887 -476 0
-479 887 0
-479 476 0
480 -20 -8 0
-480 20 0
-480 8 0
481 -480 -778 0
-481 480 0
-481 778 0
482 -888 -479 0
-482 888 0
-482 479 0
483 -728 -711 0
-483 728 0
-483 711 0
484 -483 -698 0
-484 483 0
-484 698 0
485 -889 -482 0
-485 889 0
-485 482 0
486 -822 -16 0
-486 822 0
-486 16 0
487 -486 -755 0
-487 486 0
-487 755 0
488 -890 -485 0
-488 890 0
-488 485 0
489 -727 -24 0
-489 727 0
-489 24 0
490 -489 -760 0
-490 489 0
-490 760 0
491 -891 -488 0
-491 891 0
-491 488 0
492 -818 -701 0
-492 818 0
-492 701 0
493 -492 -12 0
-493 492 0
-493 12 0
494 -892 -491 0
-494 892 0
-494 491 0
495 -728 -28 0
-495 728 0
-495 28 0
496 -495 -766 0
-496 495 0
-496 766 0
497 -893 -494 0
-497 893 0
-497 494 0
498 -741 -709 0
-498 741 0
-498 709 0
499 -498 -730 0
-499 498 0
-499 730 0
500 -894 -497 0
-500 894 0
-500 497 0
501 -49 -15 0
-501 49 0
-501 15 0
502 -501 -730 0
-502 501 0
-502 730 0
503 -895 -500 0
-503 895 0
-503 500 0
504 -232 -30 0
-504 232 0
-504 30 0
505 -896 -503 0
-505 896 0
-505 503 0
506 -782 -2 0
-506 782 0
-506 2 0
507 -506 -34 0
-507 506 0
-507 34 0
508 -897 -505 0
-508 897 0
-508 505 0
509 -49 -733 0
-509 49 0
-509 733 0
510 -509 -725 0
-510 509 0
-510 725 0
511 -898 -508 0
-511 898 0
-511 508 0
512 -45 -716 0
-512 45 0
-512 716 0
513 -512 -34 0
-513 512 0
-513 34 0
514 -899 -511 0
-514 899 0
-514 511 0
515 -778 -19 0
-515 778 0
-515 19 0
516 -515 -9 0
-516 515 0
-516 9 0
517 -900 -514 0
-517 900 0
-517 514 0
518 -719 -764 0
-518 719 0
-518 764 0
519 -518 -44 0
-519 518 0
-519 44 0
520 -901 -517 0
-520 901 0
-520 517 0
521 -43 -9 0
-521 43 0
-521 9 0
522 -521 -6 0
-522 521 0
-522 6 0
523 -902 -520 0
-523 902 0
-523 520 0
524 -480 -12 0
-524 480 0
-524 12 0
525 -903 -523 0
-525 903 0
-525 523 0
526 -759 -711 0
-526 759 0
-526 711 0
527 -526 -37 0
-527 526 0
-527 37 0
528 -904 -525 0
-528 904 0
-528 525 0
529 -711 -13 0
-529 711 0
-529 13 0
530 -529 -6 0
-530 529 0
-530 6 0
531 -905 -528 0
-531 905 0
-531 528 0
532 -803 -720 0
-532 803 0
-532 720 0
533 -532 -731 0
-533 532 0
-533 731 0
534 -906 -531 0
-534 906 0
-534 531 0
535 -46 -818 0
-535 46 0
-535 818 0
536 -535 -29 0
-536 535 0
-536 29 0
537 -907 -534 0
-537 907 0
-537 534 0
538 -768 -782 0
-538 768 0
-538 782 0
539 -538 -778 0
-539 538 0
-539 778 0
540 -908 -537 0
-540 908 0
-540 537 0
541 -50 -760 0
-541 50 0
-541 760 0
542 -541 -6 0
-542 541 0
-542 6 0
543 -909 -540 0
-543 909 0
-543 540 0
544 -818 -24 0
-544 818 0
-544 24 0
545 -544 -766 0
-545 544 0
-545 766 0
546 -910 -543 0
-546 910 0
-546 543 0
547 -911 -798 0
-547 911 0
-547 798 0
548 -547 -36 0
-548 547 0
-548 36 0
549 -912 -546 0
-549 912 0
-549 546 0
550 -23 -764 0
-550 23 0
-550 764 0
551 -550 -21 0
-551 550 0
-551 21 0
552 -913 -549 0
-552 913 0
-552 549 0
553 -38 -19 0
-553 38 0
-553 19 0
554 -553 -730 0
-554 553 0
-554 730 0
555 -914 -552 0
-555 914 0
-555 552 0
556 -15 -1 0
-556 15 0
-556 1 0
557 -556 -766 0
-557 556 0
-557 766 0
558 -915 -555 0
-558 915 0
-558 555 0
559 -42 -37 0
-559 42 0
-559 37 0
560 -559 -13 0
-560 559 0
-560 13 0
561 -916 -558 0
-561 916 0
-561 558 0
562 -780 -22 0
-562 780 0
-562 22 0
563 -562 -849 0
-563 562 0
-563 849 0
564 -917 -561 0
-564 917 0
-564 561 0
565 -30 -723 0
-565 30 0
-565 723 0
566 -565 -701 0
-566 565 0
-566 701 0
567 -918 -564 0
-567 918 0
-567 564 0
568 -11 -705 0
-568 11 0
-568 705 0
569 -568 -766 0
-569 568 0
-569 766 0
570 -919 -567 0
-570 919 0
-570 567 0
571 -45 -34 0
-571 45 0
-571 34 0
572 -571 -698 0
-572 571 0
-572 698 0
573 -920 -570 0
-573 920 0
-573 570 0
574 -911 -35 0
-574 911 0
-574 35 0
575 -574 -41 0
-575 574 0
-575 41 0
576 -921 -573 0
-576 921 0
-576 573 0
577 -911 -772 0
-577 911 0
-577 772 0
578 -577 -36 0
-578 577 0
-578 36 0
579 -922 -576 0
-579 922 0
-579 576 0
580 -40 -716 0
-580 40 0
-580 716 0
581 -580 -731 0
-581 580 0
-581 731 0
582 -923 -579 0
-582 923 0
-582 579 0
583 -32 -715 0
-583 32 0
-583 715 0
584 -583 -794 0
-584 583 0
-584 794 0
585 -924 -582 0
-585 924 0
-585 582 0
586 -253 -766 0
-586 253 0
-586 766 0
587 -925 -585 0
-587 925 0
-587 585 0
588 -803 -16 0
-588 803 0
-588 16 0
589 -588 -11 0
-589 588 0
-589 11 0
590 -926 -587 0
-590 926 0
-590 587 0
591 -798 -30 0
-591 798 0
-591 30 0
592 -591 -706 0
-592 591 0
-592 706 0
593 -927 -590 0
-593 927 0
-593 590 0
594 -780 -764 0
-594 780 0
-594 764 0
595 -594 -29 0
-595 594 0
-595 29 0
596 -928 -593 0
-596 928 0
-596 593 0
597 -764 -703 0
-597 764 0
-597 703 0
598 -597 -742 0
-598 597 0
-598 742 0
599 -929 -596 0
-599 929 0
-599 596 0
600 -811 -806 0
-600 811 0
-600 806 0
601 -600 -785 0
-601 600 0
-601 785 0
602 -930 -599 0
-602 930 0
-602 599 0
603 -47 -772 0
-603 47 0
-603 772 0
604 -603 -706 0
-604 603 0
-604 706 0
605 -931 -602 0
-605 931 0
-605 602 0
606 -798 -723 0
-606 798 0
-606 723 0
607 -606 -706 0
-607 606 0
-607 706 0
608 -932 -605 0
-608 932 0
-608 605 0
609 -716 -2 0
-609 716 0
-609 2 0
610 -609 -731 0
-610 609 0
-610 731 0
611 -933 -608 0
-611 933 0
-611 608 0
612 -811 -862 0
-612 811 0
-612 862 0
613 -612 -698 0
-613 612 0
-613 698 0
614 -934 -611 0
-614 934 0
-614 611 0
615 -725 -720 0
-615 725 0
-615 720 0
616 -615 -766 0
-616 615 0
-616 766 0
617 -935 -614 0
-617 935 0
-617 614 0
618 -796 -716 0
-618 796 0
-618 716 0
619 -618 -727 0
-619 618 0
-619 727 0
620 -936 -617 0
-620 936 0
-620 617 0
621 -38 -695 0
-621 38 0
-621 695 0
622 -621 -736 0
-622 621 0
-622 736 0
623 -937 -620 0
-623 937 0
-623 620 0
624 -49 -719 0
-624 49 0
-624 719 0
625 -624 -4 0
-625 624 0
-625 4 0
626 -938 -623 0
-626 938 0
-626 623 0
627 -730 -25 0
-627 730 0
-627 25 0
628 -627 -698 0
-628 627 0
-628 698 0
629 -939 -626 0
-629 939 0
-629 626 0
630 -757 -14 0
-630 757 0
-630 14 0
631 -630 -50 0
-631 630 0
-631 50 0
632 -940 -629 0
-632 940 0
-632 629 0
633 -750 -35 0
-633 750 0
-633 35 0
634 -633 -26 0
-634 633 0
-634 26 0
635 -941 -632 0
-635 941 0
-635 632 0
636 -28 -806 0
-636 28 0
-636 806 0
637 -636 -703 0
-637 636 0
-637 703 0
638 -942 -635 0
-638 942 0
-638 635 0
639 -47 -759 0
-639 47 0
-639 759 0
640 -639 -36 0
-640 639 0
-640 36 0
641 -943 -638 0
-641 943 0
-641 638 0
642 -47 -42 0
-642 47 0
-642 42 0
643 -642 -18 0
-643 642 0
-643 18 0
644 -944 -641 0
-644 944 0
-644 641 0
645 -911 -22 0
-645 911 0
-645 22 0
646 -645 -37 0
-646 645 0
-646 37 0
647 -945 -644 0
-647 945 0
-647 644 0
648 -733 -709 0
-648 733 0
-648 709 0
649 -648 -37 0
-649 648 0
-649 37 0
650 -946 -647 0
-650 946 0
-650 647 0
651 -30 -716 0
-651 30 0
-651 716 0
652 -651 -9 0
-652 651 0
-652 9 0
653 -947 -650 0
-653 947 0
-653 650 0
654 -47 -24 0
-654 47 0
-654 24 0
655 -654 -26 0
-655 654 0
-655 26 0
656 -948 -653 0
-656 948 0
-656 653 0
657 -34 -695 0
-657 34 0
-657 695 0
658 -657 -39 0
-658 657 0
-658 39 0
659 -949 -656 0
-659 949 0
-659 656 0
660 -798 -12 0
-660 798 0
-660 12 0
661 -660 -6 0
-661 660 0
-661 6 0
662 -950 -659 0
-662 950 0
-662 659 0
663 -184 -733 0
-663 184 0
-663 733 0
664 -951 -662 0
-664 951 0
-664 662 0
665 -27 -10 0
-665 27 0
-665 10 0
666 -665 -13 0
-666 665 0
-666 13 0
667 -952 -664 0
-667 952 0
-667 664 0
668 -36 -29 0
-668 36 0
-668 29 0
669 -668 -39 0
-669 668 0
-669 39 0
670 -953 -667 0
-670 953 0
-670 667 0
671 -811 -705 0
-671 811 0
-671 705 0
672 -671 -731 0
-672 671 0
-672 731 0
673 -954 -670 0
-673 954 0
-673 670 0
674 -24 -14 0
-674 24 0
-674 14 0
675 -674 -27 0
-675 674 0
-675 27 0
676 -955 -673 0
-676 955 0
-676 673 0
677 -46 -715 0
-677 46 0
-677 715 0
678 -677 -36 0
-678 677 0
-678 36 0
679 -956 -676 0
-679 956 0
-679 676 0
680 -42 -709 0
-680 42 0
-680 709 0
681 -680 -9 0
-681 680 0
-681 9 0
682 -957 -679 0
-682 957 0
-682 679 0
683 -764 -701 0
-683 764 0
-683 701 0
684 -683 -736 0
-684 683 0
-684 736 0
685 -958 -682 0
-685 958 0
-685 682 0
686 -862 -8 0
-686 862 0
-686 8 0
687 -686 -766 0
-687 686 0
-687 766 0
688 -959 -685 0
-688 959 0
-688 685 0
689 -772 -1 0
-689 772 0
-689 1 0
690 -689 -803 0
-690 689 0
-690 803 0
691 -960 -688 0
-691 960 0
-691 688 0
692 -728 -15 0
-692 728 0
-692 15 0
693 -692 -6 0
-693 692 0
-693 6 0
694 -961 -691 0
-694 961 0
-694 691 0
-695 -2 0
695 2 0
-696 -1 0
696 1 0
-697 -3 0
697 3 0
-698 -6 0
698 6 0
-699 -54 0
699 54 0
-700 -52 0
700 52 0
-701 -8 0
701 8 0
-702 -7 0
702 7 0
-703 -9 0
703 9 0
-704 -57 0
704 57 0
-705 -10 0
705 10 0
-706 -11 0
706 11 0
-707 -60 0
707 60 0
-708 -63 0
708 63 0
-709 -14 0
709 14 0
-710 -66 0
710 66 0
-711 -16 0
711 16 0
-712 -69 0
712 69 0
-713 -72 0
713 72 0
-714 -75 0
714 75 0
-715 -21 0
715 21 0
-716 -17 0
716 17 0
-717 -78 0
717 78 0
-718 -81 0
718 81 0
-719 -25 0
719 25 0
-720 -24 0
720 24 0
-721 -84 0
721 84 0
-722 -87 0
722 87 0
-723 -23 0
723 23 0
-724 -90 0
724 90 0
-725 -29 0
725 29 0
-726 -93 0
726 93 0
-727 -30 0
727 30 0
-728 -31 0
728 31 0
-729 -96 0
729 96 0
-730 -32 0
730 32 0
-731 -5 0
731 5 0
-732 -99 0
732 99 0
-733 -34 0
733 34 0
-734 -102 0
734 102 0
-735 -105 0
735 105 0
-736 -36 0
736 36 0
-737 -108 0
737 108 0
-738 -111 0
738 111 0
-739 -114 0
739 114 0
-740 -117 0
740 117 0
-741 -38 0
741 38 0
-742 -39 0
742 39 0
-743 -120 0
743 120 0
-744 -123 0
744 123 0
-745 -126 0
745 126 0
-746 -129 0
746 129 0
-747 -132 0
747 132 0
-748 -135 0
748 135 0
-749 -138 0
749 138 0
-750 -40 0
750 40 0
-751 -141 0
751 141 0
-752 -144 0
752 144 0
-753 -147 0
753 147 0
-754 -150 0
754 150 0
-755 -4 0
755 4 0
-756 -152 0
756 152 0
-757 -27 0
757 27 0
-758 -155 0
758 155 0
-759 -33 0
759 33 0
-760 -37 0
760 37 0
-761 -158 0
761 158 0
-762 -15 0
762 15 0
-763 -161 0
763 161 0
-764 -20 0
764 20 0
-765 -164 0
765 164 0
-766 -12 0
766 12 0
-767 -167 0
767 167 0
-768 -42 0
768 42 0
-769 -170 0
769 170 0
-770 -173 0
770 173 0
-771 -176 0
771 176 0
-772 -22 0
772 22 0
-773 -179 0
773 179 0
-774 -182 0
774 182 0
-775 -185 0
775 185 0
-776 -188 0
776 188 0
-777 -191 0
777 191 0
-778 -44 0
778 44 0
-779 -194 0
779 194 0
-780 -35 0
780 35 0
-781 -197 0
781 197 0
-782 -18 0
782 18 0
-783 -200 0
783 200 0
-784 -203 0
784 203 0
-785 -26 0
785 26 0
-786 -206 0
786 206 0
-787 -209 0
787 209 0
-788 -212 0
788 212 0
-789 -215 0
789 215 0
-790 -218 0
790 218 0
-791 -221 0
791 221 0
-792 -224 0
792 224 0
-793 -227 0
793 227 0
-794 -13 0
794 13 0
-795 -230 0
795 230 0
-796 -48 0
796 48 0
-797 -233 0
797 233 0
-798 -46 0
798 46 0
-799 -236 0
799 236 0
-800 -239 0
800 239 0
-801 -242 0
801 242 0
-802 -245 0
802 245 0
-803 -28 0
803 28 0
-804 -248 0
804 248 0
-805 -251 0
805 251 0
-806 -19 0
806 19 0
-807 -254 0
807 254 0
-808 -257 0
808 257 0
-809 -260 0
809 260 0
-810 -263 0
810 263 0
-811 -49 0
811 49 0
-812 -266 0
812 266 0
-813 -269 0
813 269 0
-814 -272 0
814 272 0
-815 -275 0
815 275 0
-816 -278 0
816 278 0
-817 -281 0
817 281 0
-818 -43 0
818 43 0
-819 -284 0
819 284 0
-820 -287 0
820 287 0
-821 -290 0
821 290 0
-822 -50 0
822 50 0
-823 -293 0
823 293 0
-824 -296 0
824 296 0
-825 -299 0
825 299 0
-826 -302 0
826 302 0
-827 -305 0
827 305 0
-828 -308 0
828 308 0
-829 -311 0
829 311 0
-830 -314 0
830 314 0
-831 -317 0
831 317 0
-832 -320 0
832 320 0
-833 -323 0
833 323 0
-834 -326 0
834 326 0
-835 -329 0
835 329 0
-836 -332 0
836 332 0
-837 -335 0
837 335 0
-838 -338 0
838 338 0
-839 -341 0
839 341 0
-840 -344 0
840 344 0
-841 -347 0
841 347 0
-842 -350 0
842 350 0
-843 -353 0
843 353 0
-844 -356 0
844 356 0
-845 -359 0
845 359 0
-846 -362 0
846 362 0
-847 -365 0
847 365 0
-848 -368 0
848 368 0
-849 -41 0
849 41 0
-850 -371 0
850 371 0
-851 -374 0
851 374 0
-852 -377 0
852 377 0
-853 -380 0
853 380 0
-854 -383 0
854 383 0
-855 -386 0
855 386 0
-856 -389 0
856 389 0
-857 -392 0
857 392 0
-858 -395 0
858 395 0
-859 -398 0
859 398 0
-860 -401 0
860 401 0
-861 -404 0
861 404 0
-862 -45 0
862 45 0
-863 -407 0
863 407 0
-864 -410 0
864 410 0
-865 -413 0
865 413 0
-866 -416 0
866 416 0
-867 -419 0
867 419 0
-868 -422 0
868 422 0
-869 -425 0
869 425 0
-870 -428 0
870 428 0
-871 -431 0
871 431 0
-872 -434 0
872 434 0
-873 -437 0
873 437 0
-874 -439 0
874 439 0
-875 -442 0
875 442 0
-876 -445 0
876 445 0
-877 -448 0
877 448 0
-878 -451 0
878 451 0
-879 -454 0
879 454 0
-880 -457 0
880 457 0
-881 -460 0
881 460 0
-882 -463 0
882 463 0
-883 -466 0
883 466 0
-884 -469 0
884 469 0
-885 -472 0
885 472 0
-886 -475 0
886 475 0
-887 -478 0
887 478 0
-888 -481 0
888 481 0
-889 -484 0
889 484 0
-890 -487 0
890 487 0
-891 -490 0
891 490 0
-892 -493 0
892 493 0
-893 -496 0
893 496 0
-894 -499 0
894 499 0
-895 -502 0
895 502 0
-896 -504 0
896 504 0
-897 -507 0
897 507 0
-898 -510 0
898 510 0
-899 -513 0
899 513 0
-900 -516 0
900 516 0
-901 -519 0
901 519 0
-902 -522 0
902 522 0
-903 -524 0
903 524 0
-904 -527 0
904 527 0
-905 -530 0
905 530 0
-906 -533 0
906 533 0
-907 -536 0
907 536 0
-908 -539 0
908 539 0
-909 -542 0
909 542 0
-910 -545 0
910 545 0
-911 -47 0
911 47 0
-912 -548 0
912 548 0
-913 -551 0
913 551 0
-914 -554 0
914 554 0
-915 -557 0
915 557 0
-916 -560 0
916 560 0
-917 -563 0
917 563 0
-918 -566 0
918 566 0
-919 -569 0
919 569 0
-920 -572 0
920 572 0
-921 -575 0
921 575 0
-922 -578 0
922 578 0
-923 -581 0
923 581 0
-924 -584 0
924 584 0
-925 -586 0
925 586 0
-926 -589 0
926 589 0
-927 -592 0
927 592 0
-928 -595 0
928 595 0
-929 -598 0
929 598 0
-930 -601 0
930 601 0
-931 -604 0
931 604 0
-932 -607 0
932 607 0
-933 -610 0
933 610 0
-934 -613 0
934 613 0
-935 -616 0
935 616 0
-936 -619 0
936 619 0
-937 -622 0
937 622 0
-938 -625 0
938 625 0
-939 -628 0
939 628 0
-940 -631 0
940 631 0
-941 -634 0
941 634 0
-942 -637 0
942 637 0
-943 -640 0
943 640 0
-944 -643 0
944 643 0
-945 -646 0
945 646 0
-946 -649 0
946 649 0
-947 -652 0
947 652 0
-948 -655 0
948 655 0
-949 -658 0
949 658 0
-950 -661 0
950 661 0
-951 -663 0
951 663 0
-952 -666 0
952 666 0
-953 -669 0
953 669 0
-954 -672 0
954 672 0
-955 -675 0
955 675 0
-956 -678 0
956 678 0
-957 -681 0
957 681 0
-958 -684 0
958 684 0
-959 -687 0
959 687 0
-960 -690 0
960 690 0
-961 -693 0
961 693 0
694 0
